
Gurobi 6.5.2 (win64) logging started 07/22/16 21:54:10


Gurobi 6.5.2 (win64) logging started 07/22/16 21:54:10

Optimize a model with 2920 rows, 745 columns and 7555 nonzeros
Coefficient statistics:
  Matrix range    [6e-08, 1e+03]
  Objective range [1e+00, 1e+00]
  Bounds range    [1e+00, 1e+00]
  RHS range       [6e-06, 2e+03]
Presolve removed 2672 rows and 492 columns
Presolve time: 0.00s
Presolved: 248 rows, 253 columns, 1070 nonzeros
Variable types: 253 continuous, 0 integer (0 binary)

Root relaxation: objective 1.841267e+02, 278 iterations, 0.02 seconds

    Nodes    |    Current Node    |     Objective Bounds      |     Work
 Expl Unexpl |  Obj  Depth IntInf | Incumbent    BestBd   Gap | It/Node Time

*    0     0               0     184.1267364  184.12674  0.00%     -    0s

Explored 0 nodes (278 simplex iterations) in 0.02 seconds
Thread count was 8 (of 8 available processors)

Optimal solution found (tolerance 1.00e-04)
Best objective 1.841267363985e+02, best bound 1.841267363985e+02, gap 0.0%

Wrote requested result file 'H1\instance24\\Results24EC_Sol3.lp'

